c
p cnf 15 62
-15 1 0
-7 4 0
-8 15 0
-9 -4 0
-9 -6 0
13 -4 0
-12 -15 0
-4 6 0
15 10 0
15 11 0
-7 9 0
15 7 0
14 -7 0
-5 3 0
6 -3 0
-7 -6 0
3 -6 0
1 6 0
-8 -2 0
1 -7 0
-14 -1 0
11 -4 0
12 8 0
14 -13 0
11 -13 0
-11 -2 0
-5 12 0
12 -5 0
-10 8 0
-13 -11 0
12 9 0
8 -11 0
13 -7 0
-14 7 0
4 -9 0
-5 1 0
8 15 0
1 5 0
-14 3 0
-14 -13 0
6 -2 0
-4 5 0
-11 3 0
-5 6 0
9 5 0
6 -10 0
-6 -1 0
14 -6 0
1 -9 0
-3 -5 0
-6 -10 0
3 -13 0
1 14 0
-6 10 0
-9 -3 0
3 -10 0
9 15 0
1 -11 0
5 13 0
8 -1 0
15 4 0
-12 -7 0
